proyfinal/src/viki/013/andrea/andrea-localstore/experimentInOfficeAgust.take6/worker_11/e03c0a9b-1bdc-4881-bfa3-0299f32bab44.als.cnf.out
Reading from standard input... Use '--help' for help.
============================[ Problem Statistics ]=============================
|                                                                             |
|  Number of variables:         87638                                         |
|  Number of clauses:          161767                                         |
|  Parse time:                   0.04 s                                       |
|                                                                             |
============================[ Search Statistics ]==============================
| Conflicts |          ORIGINAL         |          LEARNT          | Progress |
|           |    Vars  Clauses Literals |    Limit  Clauses Lit/Cl |          |
===============================================================================
|       100 |   63856   110532   275979 |    40528      100     10 | 27.137 % |
|       250 |   63856   110532   275979 |    44581      250     18 | 27.137 % |
|       475 |   63856   110532   275979 |    49039      475     83 | 27.137 % |
|       812 |   63856   110532   275979 |    53943      812     94 | 27.137 % |
|      1318 |   63856   110532   275979 |    59337     1318     74 | 27.137 % |
|      2077 |   63856   110532   275979 |    65271     2077     70 | 27.137 % |
|      3216 |   63856   110532   275979 |    71798     3216     64 | 27.137 % |
|      4924 |   63830   110424   275732 |    78978     4922     74 | 27.166 % |
|      7486 |   63760   110100   274994 |    86876     7475     74 | 27.246 % |
|     11330 |   63707   109884   274490 |    95563    11312     77 | 27.307 % |
|     17096 |   55498    84020   211012 |   105120    16508     76 | 36.674 % |
===============================================================================
restarts              : 79
conflicts             : 22545          (6614 /sec)
decisions             : 81191          (0.00 % random) (23818 /sec)
propagations          : 33989026       (9970836 /sec)
conflict literals     : 1765235        (49.50 % deleted)
Memory used           : 40.49 MB
CPU time              : 3.40884 s

INDETERMINATE
